array [1..11] of int: X_INTRODUCED_39_ = [-16,-12,-16,-15,-16,-5,-8,-25,-20,-12,-3];
array [1..12] of int: X_INTRODUCED_62_ = [-13,-17,-13,-9,-6,-5,-11,-10,-4,-8,-6,-5];
array [1..6] of int: X_INTRODUCED_72_ = [-4,-2,-2,-4,-2,-4];
array [1..4] of int: X_INTRODUCED_78_ = [-2,-2,-2,-2];
array [1..17] of int: X_INTRODUCED_107_ = [1,-13092,-13094,-13078,-13093,-13078,-13078,-13082,-13088,-13088,-13080,-13082,-13093,-13092,-13086,-13087,-13088];
var 0..375: X_INTRODUCED_0_;
var 0..375: X_INTRODUCED_1_;
var 0..375: X_INTRODUCED_2_;
var 0..375: X_INTRODUCED_3_;
var 0..375: X_INTRODUCED_4_;
var 0..375: X_INTRODUCED_5_;
var 0..375: X_INTRODUCED_6_;
var 0..375: X_INTRODUCED_7_;
var 0..375: X_INTRODUCED_8_;
var 0..375: X_INTRODUCED_9_;
var 0..375: X_INTRODUCED_10_;
var 0..375: X_INTRODUCED_11_;
var 0..375: X_INTRODUCED_12_;
var 0..375: X_INTRODUCED_13_;
var 0..375: X_INTRODUCED_14_;
var 0..375: X_INTRODUCED_15_;
var 0..78517125: objective:: output_var:: is_defined_var;
array [1..16] of var int: candidate_copies:: output_array([1..16]) = [X_INTRODUCED_0_,X_INTRODUCED_1_,X_INTRODUCED_2_,X_INTRODUCED_3_,X_INTRODUCED_4_,X_INTRODUCED_5_,X_INTRODUCED_6_,X_INTRODUCED_7_,X_INTRODUCED_8_,X_INTRODUCED_9_,X_INTRODUCED_10_,X_INTRODUCED_11_,X_INTRODUCED_12_,X_INTRODUCED_13_,X_INTRODUCED_14_,X_INTRODUCED_15_];
array [1..11] of var int: X_INTRODUCED_38_ ::var_is_introduced  = [X_INTRODUCED_0_,X_INTRODUCED_1_,X_INTRODUCED_3_,X_INTRODUCED_7_,X_INTRODUCED_8_,X_INTRODUCED_9_,X_INTRODUCED_10_,X_INTRODUCED_11_,X_INTRODUCED_12_,X_INTRODUCED_13_,X_INTRODUCED_14_];
array [1..12] of var int: X_INTRODUCED_61_ ::var_is_introduced  = [X_INTRODUCED_2_,X_INTRODUCED_4_,X_INTRODUCED_5_,X_INTRODUCED_6_,X_INTRODUCED_7_,X_INTRODUCED_8_,X_INTRODUCED_9_,X_INTRODUCED_10_,X_INTRODUCED_12_,X_INTRODUCED_13_,X_INTRODUCED_14_,X_INTRODUCED_15_];
array [1..17] of var int: X_INTRODUCED_106_ ::var_is_introduced  = [objective,X_INTRODUCED_0_,X_INTRODUCED_1_,X_INTRODUCED_2_,X_INTRODUCED_3_,X_INTRODUCED_4_,X_INTRODUCED_5_,X_INTRODUCED_6_,X_INTRODUCED_7_,X_INTRODUCED_8_,X_INTRODUCED_9_,X_INTRODUCED_10_,X_INTRODUCED_11_,X_INTRODUCED_12_,X_INTRODUCED_13_,X_INTRODUCED_14_,X_INTRODUCED_15_];
constraint int_lin_le(X_INTRODUCED_39_,X_INTRODUCED_38_,-375);
constraint int_lin_le(X_INTRODUCED_62_,X_INTRODUCED_61_,-91);
constraint int_lin_le(X_INTRODUCED_72_,[X_INTRODUCED_1_,X_INTRODUCED_2_,X_INTRODUCED_3_,X_INTRODUCED_6_,X_INTRODUCED_14_,X_INTRODUCED_15_],-4);
constraint int_lin_le(X_INTRODUCED_78_,[X_INTRODUCED_0_,X_INTRODUCED_5_,X_INTRODUCED_14_,X_INTRODUCED_15_],-2);
constraint int_lin_eq(X_INTRODUCED_107_,X_INTRODUCED_106_,0):: defines_var(objective);
solve :: int_search(candidate_copies,input_order,indomain_min,complete) minimize objective;
